p edge 133
e 0 1
e 1 19
e 1 98
e 1 107
e 1 116
e 2 3
e 2 4
e 2 5
e 2 6
e 2 89
e 2 117
e 2 132
e 3 4
e 3 5
e 3 44
e 3 47
e 3 117
e 5 6
e 5 47
e 6 7
e 6 92
e 6 132
e 7 92
e 7 116
e 7 122
e 8 9
e 9 21
e 9 24
e 9 26
e 9 49
e 9 93
e 10 11
e 10 12
e 10 13
e 10 14
e 10 15
e 10 50
e 10 106
e 10 125
e 10 126
e 11 20
e 11 23
e 11 50
e 11 101
e 11 125
e 12 39
e 12 91
e 12 106
e 12 125
e 14 15
e 14 83
e 14 99
e 14 126
e 15 16
e 15 50
e 15 94
e 15 99
e 17 18
e 17 19
e 17 92
e 17 116
e 17 131
e 19 107
e 19 116
e 20 21
e 20 23
e 20 104
e 20 125
e 20 129
e 21 22
e 21 23
e 21 24
e 21 93
e 21 129
e 22 23
e 22 24
e 23 24
e 23 101
e 24 44
e 24 45
e 24 49
e 24 101
e 25 26
e 26 49
e 26 127
e 27 29
e 27 33
e 27 58
e 27 97
e 27 115
e 28 32
e 28 33
e 29 30
e 29 31
e 29 32
e 29 33
e 29 97
e 29 102
e 29 110
e 30 32
e 30 38
e 30 91
e 30 102
e 30 104
e 31 32
e 31 33
e 31 34
e 32 33
e 32 34
e 32 37
e 32 38
e 32 41
e 32 43
e 33 43
e 33 115
e 35 39
e 35 40
e 35 41
e 35 42
e 35 78
e 35 106
e 35 111
e 36 40
e 36 42
e 36 64
e 36 65
e 36 111
e 36 118
e 36 121
e 37 41
e 38 39
e 38 91
e 39 41
e 39 91
e 39 106
e 40 42
e 40 111
e 41 42
e 41 43
e 42 43
e 42 64
e 43 64
e 43 115
e 44 45
e 44 46
e 44 47
e 44 48
e 44 49
e 44 117
e 45 47
e 45 101
e 45 123
e 46 48
e 47 123
e 49 117
e 49 127
e 50 51
e 50 52
e 50 90
e 50 101
e 50 109
e 53 54
e 53 59
e 53 60
e 53 61
e 53 64
e 53 67
e 54 55
e 54 59
e 54 61
e 54 66
e 55 61
e 55 62
e 55 66
e 56 60
e 56 64
e 57 60
e 57 65
e 57 108
e 57 118
e 58 59
e 58 67
e 58 68
e 58 97
e 58 115
e 59 66
e 59 67
e 60 61
e 60 63
e 60 64
e 60 65
e 60 108
e 61 63
e 61 108
e 62 66
e 62 108
e 63 108
e 64 65
e 64 115
e 65 118
e 67 68
e 67 115
e 69 77
e 69 86
e 70 73
e 70 80
e 70 82
e 71 74
e 71 76
e 71 84
e 71 88
e 72 78
e 72 79
e 73 74
e 73 80
e 73 82
e 73 85
e 73 86
e 74 84
e 74 86
e 75 78
e 75 79
e 75 81
e 75 83
e 75 84
e 75 126
e 76 81
e 76 84
e 76 88
e 76 94
e 76 99
e 77 86
e 78 79
e 78 106
e 78 111
e 78 126
e 79 84
e 79 86
e 79 103
e 79 111
e 81 83
e 81 84
e 81 99
e 83 99
e 83 126
e 84 86
e 87 88
e 88 94
e 89 105
e 89 117
e 89 127
e 89 131
e 89 132
e 90 101
e 90 109
e 90 123
e 91 104
e 91 125
e 92 116
e 92 131
e 92 132
e 93 114
e 93 129
e 94 99
e 95 101
e 96 108
e 96 112
e 96 118
e 96 124
e 97 110
e 97 119
e 98 116
e 98 122
e 100 103
e 100 113
e 100 121
e 100 124
e 101 123
e 101 130
e 102 104
e 102 110
e 102 128
e 103 111
e 103 121
e 104 125
e 104 128
e 104 129
e 105 131
e 106 126
e 110 114
e 110 128
e 111 121
e 112 113
e 112 118
e 112 124
e 113 121
e 113 124
e 114 128
e 114 129
e 116 122
e 117 127
e 118 121
e 120 123
e 128 129
e 131 132
c k 11
